p cnf 14 58
4 -5 6 0
-4 5 6 0
9 11 13 0
4 -5 -11 0
7 -9 -13 0
-2 -8 -9 0
-9 11 -13 0
1 5 7 0
-10 12 14 0
2 -3 -4 0
-8 -10 13 0
-1 -6 9 0
-2 -10 -13 0
6 -11 14 0
3 -9 -11 0
1 9 12 0
6 -8 11 0
5 8 -12 0
2 12 -13 0
-1 -3 -14 0
1 -2 -3 0
-1 3 -6 0
6 8 13 0
-1 -5 -12 0
4 -11 13 0
2 -5 -8 0
-4 5 7 0
5 7 -12 0
6 -8 9 0
5 -10 12 0
-2 5 -10 0
-1 3 -10 0
2 3 14 0
3 -5 -11 0
-1 -6 -13 0
-2 10 -12 0
-3 7 11 0
-1 -3 10 0
1 3 -6 0
-7 -9 -12 0
-8 9 13 0
-2 9 11 0
1 -10 14 0
-1 5 -10 0
3 10 -11 0
-5 8 -14 0
-2 -6 -9 0
1 9 13 0
5 10 -11 0
-1 -8 11 0
1 8 12 0
6 13 14 0
-8 11 -13 0
4 5 -14 0
-3 -9 13 0
-1 -7 13 0
4 7 13 0
2 10 -11 0
